186 3973
2 3 4 5 6 7 8 9 10 11 12 13 14 15 16 33 34 35 36 37 38 39 40 41 42 43 44 45 46 47 48 49 50 51 52 53 54 55 56 57 58 59 60 61 62 63 64 65 66 67 68 69 70 71 72 73 74 75 76 77 78 79 80 81 82 83 84 85 86 87 88 89 90 91 92 93 94 95 96 97 98 99 100 101 102 103 104 105 106 107 109 110 111 112 113 114 115 116 117 118 119 120 121 122 123 124 125 126 127 129 130 131 132 133 134 135 136 137 138 139 141 143 144 145 146 147 148 149 151 153 154 155 156 157 159 161 162 163 164 165 166 167 168 169 170 171 172 173 174 175 176 177 178 179 181 182 184 185 186
1 3 4 5 6 7 8 9 10 11 12 13 14 15 16 33 34 35 36 37 38 39 40 41 42 43 44 45 46 47 48 49 50 51 52 53 54 55 56 57 58 59 60 61 62 63 64 65 66 67 68 69 70 71 72 73 74 75 76 77 78 79 80 81 82 83 84 85 86 87 88 89 90 91 92 93 94 95 96 97 98 99 100 101 102 103 104 105 106 107 109 110 111 112 113 114 115 116 117 118 119 120 121 122 123 124 125 126 127 129 130 131 132 133 134 135 136 137 138 139 141 143 144 145 146 147 148 149 151 153 154 155 156 157 159 161 162 163 164 165 166 167 168 169 170 171 172 173 174 175 176 177 178 179 181 182 184 185 186
1 2 4 5 6 7 8 9 10 11 12 13 14 15 16 33 38 39 40 41 42 43 44 45 46 47 48 49 50 51 52 53 54 55 56 57 58 59 60 61 63 64 65 66 67 70 100 101 102 103 104 105 106 107 111 112 117 119 122 130 132 134 135 136 138 139 143 144 145 146 147 148 149 153 154 155 156 157 163 164 165 181 182
1 2 3 5 6 7 8 9 10 11 12 13 14 15 16 33 46 47 48 49 50 51 52 53 54 61 63 64 65 66 67 70 100 101 102 103 104 105 106 107 111 112 117 119 122 130 132 134 135 136 138 139 143 144 145 146 147 148 149 153 154 155 156 157 163 164 165 181 182
1 2 3 4 6 7 8 9 10 11 12 13 14 15 16 33 38 46 47 48 49 50 51 52 53 54 61 63 64 65 66 67 70 100 101 102 103 104 105 106 107 111 112 117 119 122 130 132 134 135 136 138 139 143 144 145 146 147 148 149 153 154 155 156 157 163 164 165 175 181 182
1 2 3 4 5 7 8 9 10 11 12 13 14 15 16 33 38 39 46 47 48 49 50 51 52 53 54 61 63 64 65 66 67 70 100 101 102 103 104 105 106 107 111 112 117 119 122 130 132 134 135 136 138 139 143 144 145 146 147 148 149 153 154 155 156 157 163 164 165 174 175 181 182
1 2 3 4 5 6 8 9 10 11 12 13 14 15 16 33 38 39 40 46 47 48 49 50 51 52 53 54 61 63 64 65 66 67 70 100 101 102 103 104 105 106 107 111 112 117 119 122 130 132 134 135 136 138 139 143 144 145 146 147 148 149 153 154 155 156 157 163 164 165 173 174 175 181 182
1 2 3 4 5 6 7 9 10 11 12 13 14 15 16 33 38 39 40 41 46 47 48 49 50 51 52 53 54 61 63 64 65 66 67 70 100 101 102 103 104 105 106 107 111 112 117 119 122 130 132 134 135 136 138 139 143 144 145 146 147 148 149 153 154 155 156 157 163 164 165 172 173 174 175 181 182
1 2 3 4 5 6 7 8 10 11 12 13 14 15 16 33 38 39 40 41 42 46 47 48 49 50 51 52 53 54 61 63 64 65 66 67 70 100 101 102 103 104 105 106 107 111 112 117 119 122 130 132 134 135 136 138 139 143 144 145 146 147 148 149 153 154 155 156 157 163 164 165 171 172 173 174 175 181 182
1 2 3 4 5 6 7 8 9 11 12 13 14 15 16 33 38 39 40 41 42 43 46 47 48 49 50 51 52 53 54 61 63 64 65 66 67 70 100 101 102 103 104 105 106 107 111 112 117 119 122 130 132 134 135 136 138 139 143 144 145 146 147 148 149 153 154 155 156 157 163 164 165 170 171 172 173 174 175 181 182
1 2 3 4 5 6 7 8 9 10 12 13 14 15 16 33 38 39 40 41 42 43 44 45 46 47 48 49 50 51 52 53 54 61 63 64 65 66 67 70 100 101 102 103 104 105 106 107 111 112 117 119 122 130 132 134 135 136 138 139 143 144 145 146 147 148 149 153 154 155 156 157 163 164 165 181 182
1 2 3 4 5 6 7 8 9 10 11 13 14 15 16 33 38 39 40 41 42 43 44 45 46 47 48 49 50 51 52 53 54 55 56 61 63 64 65 66 67 70 100 101 102 103 104 105 106 107 111 112 117 119 122 130 132 134 135 136 138 139 143 144 145 146 147 148 149 153 154 155 156 157 163 164 165 181 182
1 2 3 4 5 6 7 8 9 10 11 12 14 15 16 33 38 39 40 41 42 43 44 45 46 47 48 49 50 51 52 53 54 55 56 57 58 61 63 64 65 66 67 70 100 101 102 103 104 105 106 107 111 112 117 119 122 130 132 134 135 136 138 139 143 144 145 146 147 148 149 153 154 155 156 157 163 164 165 181 182
1 2 3 4 5 6 7 8 9 10 11 12 13 15 16 33 38 39 40 41 42 43 44 45 46 47 48 49 50 51 52 53 54 55 56 57 58 59 61 63 64 65 66 67 70 100 101 102 103 104 105 106 107 111 112 117 119 122 130 132 134 135 136 138 139 143 144 145 146 147 148 149 153 154 155 156 157 163 164 165 181 182
1 2 3 4 5 6 7 8 9 10 11 12 13 14 16 33 46 47 48 49 50 51 52 53 54 61 63 64 65 66 67 70 100 101 102 103 104 105 106 107 111 112 117 119 122 130 132 134 135 136 138 139 143 144 145 146 147 148 149 153 154 155 156 157 163 164 165 181 182
1 2 3 4 5 6 7 8 9 10 11 12 13 14 15 33 38 39 40 41 42 43 44 46 47 48 49 50 51 52 53 54 61 63 64 65 66 67 70 100 101 102 103 104 105 106 107 111 112 117 119 122 130 132 134 135 136 138 139 143 144 145 146 147 148 149 153 154 155 156 157 163 164 165 169 170 171 172 173 174 175 181 182
18 19 20 21 22 23 24 25 26 27 28 29 30 31 32 33 34 35 36 37 38 39 40 41 42 43 44 45 46 47 48 49 50 51 52 53 54 55 56 57 58 59 60 61 62 63 64 65 66 67 68 69 70 71 72 73 74 75 76 77 78 79 80 81 82 83 84 85 86 87 88 89 90 91 92 93 94 95 96 97 98 99 100 101 102 103 104 105 106 107 109 110 111 112 113 114 115 116 117 118 119 120 121 122 123 124 125 126 127 129 130 131 132 133 134 135 136 137 138 139 141 143 144 145 146 147 148 149 151 153 154 155 156 157 159 161 162 163 164 165 166 167 168 169 170 171 172 173 174 175 176 177 178 179 181 182 184 185 186
17 19 20 21 22 23 24 25 26 27 28 29 30 31 32 34 35 36 37 38 39 40 41 42 43 44 45 55 56 57 58 59 60 62 68 69 71 72 73 74 75 76 77 78 79 80 81 82 83 84 85 86 87 88 89 90 91 92 93 94 95 96 97 98 99 109 110 113 114 115 116 118 120 121 123 124 125 126 127 129 131 133 137 141 151 159 161 162 166 167 168 169 170 171 172 173 174 175 176 177 178 179 184 185 186
17 18 20 21 22 23 24 25 26 27 28 29 30 31 32 34 35 36 37 38 39 40 41 42 43 44 45 46 55 56 57 58 59 60 62 68 69 71 72 73 74 75 76 77 78 79 80 81 82 83 84 85 86 87 88 89 90 91 92 93 94 95 96 97 98 99 109 110 113 114 115 116 118 120 121 123 124 125 126 127 129 131 133 137 141 151 159 161 162 163 166 167 168 169 170 171 172 173 174 175 176 177 178 179 184 185 186
17 18 19 21 22 23 24 25 26 27 28 29 30 31 32 34 35 36 37 38 39 40 41 42 43 44 45 46 47 55 56 57 58 59 60 62 68 69 71 72 73 74 75 76 77 78 79 80 81 82 83 84 85 86 87 88 89 90 91 92 93 94 95 96 97 98 99 109 110 113 114 115 116 118 120 121 123 124 125 126 127 129 131 133 137 141 151 159 161 162 163 164 166 167 168 169 170 171 172 173 174 175 176 177 178 179 184 185 186
17 18 19 20 22 23 24 25 26 27 28 29 30 31 32 34 35 36 37 38 39 40 41 42 43 44 45 46 47 48 55 56 57 58 59 60 62 68 69 71 72 73 74 75 76 77 78 79 80 81 82 83 84 85 86 87 88 89 90 91 92 93 94 95 96 97 98 99 109 110 113 114 115 116 118 120 121 123 124 125 126 127 129 131 133 137 141 151 159 161 162 163 164 165 166 167 168 169 170 171 172 173 174 175 176 177 178 179 184 185 186
17 18 19 20 21 23 24 25 26 27 28 29 30 31 32 34 35 36 37 38 39 40 41 42 43 44 45 46 47 48 49 55 56 57 58 59 60 62 68 69 71 72 73 74 75 76 77 78 79 80 81 82 83 84 85 86 87 88 89 90 91 92 93 94 95 96 97 98 99 109 110 113 114 115 116 118 120 121 123 124 125 126 127 129 131 133 137 141 151 159 161 162 163 164 165 166 167 168 169 170 171 172 173 174 175 176 177 178 179 184 185 186
17 18 19 20 21 22 24 25 26 27 28 29 30 31 32 34 35 36 37 38 39 40 41 42 43 44 45 46 47 48 49 50 55 56 57 58 59 60 62 68 69 71 72 73 74 75 76 77 78 79 80 81 82 83 84 85 86 87 88 89 90 91 92 93 94 95 96 97 98 99 109 110 113 114 115 116 118 120 121 123 124 125 126 127 129 131 133 137 141 151 159 161 162 163 164 165 166 167 168 169 170 171 172 173 174 175 176 177 178 179 184 185 186
17 18 19 20 21 22 23 25 26 27 28 29 30 31 32 34 35 36 37 38 39 40 41 42 43 44 45 46 47 48 49 50 51 55 56 57 58 59 60 62 68 69 71 72 73 74 75 76 77 78 79 80 81 82 83 84 85 86 87 88 89 90 91 92 93 94 95 96 97 98 99 109 110 113 114 115 116 118 120 121 123 124 125 126 127 129 131 133 137 141 151 159 161 162 163 164 165 166 167 168 169 170 171 172 173 174 175 176 177 178 179 184 185 186
17 18 19 20 21 22 23 24 26 27 28 29 30 31 32 34 35 36 37 38 39 40 41 42 43 44 45 46 47 48 49 50 51 52 55 56 57 58 59 60 62 68 69 71 72 73 74 75 76 77 78 79 80 81 82 83 84 85 86 87 88 89 90 91 92 93 94 95 96 97 98 99 109 110 113 114 115 116 118 120 121 123 124 125 126 127 129 131 133 137 141 151 159 161 162 163 164 165 166 167 168 169 170 171 172 173 174 175 176 177 178 179 184 185 186
17 18 19 20 21 22 23 24 25 27 28 29 30 31 32 34 35 36 37 38 39 40 41 42 43 44 45 46 47 48 49 50 51 52 53 55 56 57 58 59 60 62 68 69 71 72 73 74 75 76 77 78 79 80 81 82 83 84 85 86 87 88 89 90 91 92 93 94 95 96 97 98 99 109 110 113 114 115 116 118 120 121 123 124 125 126 127 129 131 133 137 141 151 159 161 162 163 164 165 166 167 168 169 170 171 172 173 174 175 176 177 178 179 184 185 186
17 18 19 20 21 22 23 24 25 26 28 29 30 31 32 34 35 36 37 38 39 40 41 42 43 44 45 55 56 57 58 59 60 62 68 69 71 72 73 74 75 76 77 78 79 80 81 82 83 84 85 86 87 88 89 90 91 92 93 94 95 96 97 98 99 109 110 113 114 115 116 118 120 121 123 124 125 126 127 129 131 133 137 141 151 159 161 162 166 167 168 169 170 171 172 173 174 175 176 177 178 179 184 185 186
17 18 19 20 21 22 23 24 25 26 27 29 30 31 32 34 35 36 37 38 39 40 41 42 43 44 45 55 56 57 58 59 60 62 68 69 71 72 73 74 75 76 77 78 79 80 81 82 83 84 85 86 87 88 89 90 91 92 93 94 95 96 97 98 99 109 110 113 114 115 116 118 120 121 123 124 125 126 127 129 131 133 137 141 151 159 161 162 166 167 168 169 170 171 172 173 174 175 176 177 178 179 184 185 186
17 18 19 20 21 22 23 24 25 26 27 28 30 31 32 34 35 36 37 38 39 40 41 42 43 44 45 55 56 57 58 59 60 62 68 69 71 72 73 74 75 76 77 78 79 80 81 82 83 84 85 86 87 88 89 90 91 92 93 94 95 96 97 98 99 109 110 113 114 115 116 118 120 121 123 124 125 126 127 129 131 133 137 141 151 159 161 162 166 167 168 169 170 171 172 173 174 175 176 177 178 179 184 185 186
17 18 19 20 21 22 23 24 25 26 27 28 29 31 32 34 35 36 37 38 39 40 41 42 43 44 45 55 56 57 58 59 60 62 68 69 71 72 73 74 75 76 77 78 79 80 81 82 83 84 85 86 87 88 89 90 91 92 93 94 95 96 97 98 99 109 110 113 114 115 116 118 120 121 123 124 125 126 127 129 131 133 137 141 151 159 161 162 166 167 168 169 170 171 172 173 174 175 176 177 178 179 184 185 186
17 18 19 20 21 22 23 24 25 26 27 28 29 30 32 34 35 36 37 38 39 40 41 42 43 44 45 55 56 57 58 59 60 62 68 69 71 72 73 74 75 76 77 78 79 80 81 82 83 84 85 86 87 88 89 90 91 92 93 94 95 96 97 98 99 109 110 113 114 115 116 118 120 121 123 124 125 126 127 129 131 133 137 141 151 159 161 162 166 167 168 169 170 171 172 173 174 175 176 177 178 179 184 185 186
17 18 19 20 21 22 23 24 25 26 27 28 29 30 31 34 35 36 37 38 39 40 41 42 43 44 45 55 56 57 58 59 60 62 68 69 71 72 73 74 75 76 77 78 79 80 81 82 83 84 85 86 87 88 89 90 91 92 93 94 95 96 97 98 99 109 110 113 114 115 116 118 120 121 123 124 125 126 127 129 131 133 137 141 151 159 161 162 166 167 168 169 170 171 172 173 174 175 176 177 178 179 184 185 186
1 2 3 4 5 6 7 8 9 10 11 12 13 14 15 16 17 49 50 51 52 53 54 61 63 65 66 67 70 107 111
1 2 17 18 19 20 21 22 23 24 25 26 27 28 29 30 31 32 60 71 83 85 86 89 90 92 93 95 96 129 131 133 137 141
1 2 17 18 19 20 21 22 23 24 25 26 27 28 29 30 31 32 60 71 83 85 86 89 90 92 93 95 96 159
1 2 17 18 19 20 21 22 23 24 25 26 27 28 29 30 31 32 60 71 83 85 86 89 90 92 93 95 96 151
1 2 17 18 19 20 21 22 23 24 25 26 27 28 29 30 31 32 178 179 184
1 2 3 5 6 7 8 9 10 11 12 13 14 16 17 18 19 20 21 22 23 24 25 26 27 28 29 30 31 32
1 2 3 6 7 8 9 10 11 12 13 14 16 17 18 19 20 21 22 23 24 25 26 27 28 29 30 31 32
1 2 3 7 8 9 10 11 12 13 14 16 17 18 19 20 21 22 23 24 25 26 27 28 29 30 31 32
1 2 3 8 9 10 11 12 13 14 16 17 18 19 20 21 22 23 24 25 26 27 28 29 30 31 32
1 2 3 9 10 11 12 13 14 16 17 18 19 20 21 22 23 24 25 26 27 28 29 30 31 32
1 2 3 10 11 12 13 14 16 17 18 19 20 21 22 23 24 25 26 27 28 29 30 31 32
1 2 3 11 12 13 14 16 17 18 19 20 21 22 23 24 25 26 27 28 29 30 31 32
1 2 3 11 12 13 14 17 18 19 20 21 22 23 24 25 26 27 28 29 30 31 32
1 2 3 4 5 6 7 8 9 10 11 12 13 14 15 16 17 19 20 21 22 23 24 25 26
1 2 3 4 5 6 7 8 9 10 11 12 13 14 15 16 17 20 21 22 23 24 25 26
1 2 3 4 5 6 7 8 9 10 11 12 13 14 15 16 17 21 22 23 24 25 26
1 2 3 4 5 6 7 8 9 10 11 12 13 14 15 16 17 22 23 24 25 26 33 50 51 52 53 54 61 63 64 65 66 67 70 100 101 102 103 104 105 106 107 111 112 117 119 122 130 132 134 135 136 138 139 143 144 145 146 147 148 149 153 154 155 156 157 163 164 165 181 182
1 2 3 4 5 6 7 8 9 10 11 12 13 14 15 16 17 23 24 25 26 33 49 51 52 53 54 61 63 64 65 66 67 70 100 101 102 103 104 105 106 107 111 112 117 119 122 130 132 134 135 136 138 139 143 144 145 146 147 148 149 153 154 155 156 157 163 164 165 181 182
1 2 3 4 5 6 7 8 9 10 11 12 13 14 15 16 17 24 25 26 33 49 50 52 53 54 61 63 64 65 66 67 70 100 101 102 103 104 105 106 107 111 112 117 119 122 130 132 134 135 136 138 139 143 144 145 146 147 148 149 153 154 155 156 157 163 164 165 181 182
1 2 3 4 5 6 7 8 9 10 11 12 13 14 15 16 17 25 26 33 49 50 51 53 54 61 63 64 65 66 67 70 100 101 102 103 104 105 106 107 111 112 117 119 122 130 132 134 135 136 138 139 143 144 145 146 147 148 149 153 154 155 156 157 163 164 165 181 182
1 2 3 4 5 6 7 8 9 10 11 12 13 14 15 16 17 26 33 49 50 51 52 54 61 63 64 65 66 67 70 100 101 102 103 104 105 106 107 111 112 117 119 122 130 132 134 135 136 138 139 143 144 145 146 147 148 149 153 154 155 156 157 163 164 165 181 182
1 2 3 4 5 6 7 8 9 10 11 12 13 14 15 16 17 33 49 50 51 52 53 61 63 64 65 66 67 70 100 101 102 103 104 105 106 107 111 112 117 119 122 130 132 134 135 136 138 139 143 144 145 146 147 148 149 153 154 155 156 157 163 164 165 181 182
1 2 3 12 13 14 17 18 19 20 21 22 23 24 25 26 27 28 29 30 31 32
1 2 3 12 13 14 17 18 19 20 21 22 23 24 25 26 27 28 29 30 31 32
1 2 3 13 14 17 18 19 20 21 22 23 24 25 26 27 28 29 30 31 32
1 2 3 13 14 17 18 19 20 21 22 23 24 25 26 27 28 29 30 31 32
1 2 3 14 17 18 19 20 21 22 23 24 25 26 27 28 29 30 31 32
1 2 3 17 18 19 20 21 22 23 24 25 26 27 28 29 30 31 32 34 35 36 62 68 69 71 72 73 74 75 76 77 78 79 80 81 82 83 84 85 86 87 88 89 90 91 92 93 94 95 96 97 98 99 109 110 113 114 115 116 118 120 121 123 124 125 126 129 131 133 137 141 151 159
1 2 3 4 5 6 7 8 9 10 11 12 13 14 15 16 17 33 49 50 51 52 53 54 63 64 65 66 67 70 100 101 102 103 104 105 106 107 111 112 117 119 122 130 132 134 135 136 138 139 143 144 145 146 147 148 149 153 154 155 156 157
1 2 17 18 19 20 21 22 23 24 25 26 27 28 29 30 31 32 60
1 2 3 4 5 6 7 8 9 10 11 12 13 14 15 16 17 33 49 50 51 52 53 54 61 64 65 66 67 70 100 101 102 103 104 105 106 107 111 112 117 119 122 130 132 134 135 136 138 139 143 144 145 146 147 148 149 153 154 155 156 157
1 2 3 4 5 6 7 8 9 10 11 12 13 14 15 16 17 49 50 51 52 53 54 61 63
1 2 3 4 5 6 7 8 9 10 11 12 13 14 15 16 17 33 49 50 51 52 53 54 61 63 66 67 70 100 101 102 103 104 105 106 107 111 112 117 119 122 130 132 134 135 136 138 139 143 144 145 146 147 148 149 153 154 155 156 157
1 2 3 4 5 6 7 8 9 10 11 12 13 14 15 16 17 33 49 50 51 52 53 54 61 63 65 67 70 100 101 102 103 104 105 106 107 111 112 117 119 122 130 132 134 135 136 138 139 143 144 145 146 147 148 149 153 154 155 156 157
1 2 3 4 5 6 7 8 9 10 11 12 13 14 15 16 17 33 49 50 51 52 53 54 61 63 65 66 70 100 101 102 103 104 105 106 107 111 112 117 119 122 130 132 134 135 136 138 139 143 144 145 146 147 148 149 153 154 155 156 157
1 2 17 18 19 20 21 22 23 24 25 26 27 28 29 30 31 32 60
1 2 17 18 19 20 21 22 23 24 25 26 27 28 29 30 31 32 60 71 72 73 74
1 2 3 4 5 6 7 8 9 10 11 12 13 14 15 16 17 33 49 50 51 52 53 54 61 63 65 66 67 100 101 102 103 104 105 106 107 111 112 117 119 122 130 132 134 135 136 138 139 143 144 145 146 147 148 149 153 154 155 156 157
1 2 17 18 19 20 21 22 23 24 25 26 27 28 29 30 31 32 34 35 36 60 69 72 73 74 75 76 77 78 79 80 81 82 83 84 85 86 87 88 89 90 91 92 93 94 95 96 97 98 99 109 110 113 114 115 116 118 120 121 123 124 125 126 129 131 133 137 141 151 159
1 2 17 18 19 20 21 22 23 24 25 26 27 28 29 30 31 32 60 69 71
1 2 17 18 19 20 21 22 23 24 25 26 27 28 29 30 31 32 60 69 71 74
1 2 17 18 19 20 21 22 23 24 25 26 27 28 29 30 31 32 60 69 71 73
1 2 17 18 19 20 21 22 23 24 25 26 27 28 29 30 31 32 60 71
1 2 17 18 19 20 21 22 23 24 25 26 27 28 29 30 31 32 60 71
1 2 17 18 19 20 21 22 23 24 25 26 27 28 29 30 31 32 60 71 78 79 80 81
1 2 17 18 19 20 21 22 23 24 25 26 27 28 29 30 31 32 60 71 77 79 80 81 82 83
1 2 17 18 19 20 21 22 23 24 25 26 27 28 29 30 31 32 60 71 77 78 80 81 82 83 84
1 2 17 18 19 20 21 22 23 24 25 26 27 28 29 30 31 32 60 71 77 78 79 81 82 83 84 85
1 2 17 18 19 20 21 22 23 24 25 26 27 28 29 30 31 32 60 71 77 78 79 80 82 83 84 85 86 87
1 2 17 18 19 20 21 22 23 24 25 26 27 28 29 30 31 32 60 71 78 79 80 81 83 84 85 86 87 88 89
1 2 17 18 19 20 21 22 23 24 25 26 27 28 29 30 31 32 34 35 36 60 71 78 79 80 81 82 84 85 86 87 88 89 90 91 92 93 94 95 96 97 98 99 109 110 113 114 115 116 118 120 121 123 124 125 126 129 131 133 137 141 151 159
1 2 17 18 19 20 21 22 23 24 25 26 27 28 29 30 31 32 60 71 79 80 81 82 83 85 86
1 2 17 18 19 20 21 22 23 24 25 26 27 28 29 30 31 32 34 35 36 60 71 80 81 82 83 84 86 87 88 89 90 91 92 93 94 95 96 97 98 99 109 110 113 114 115 116 118 120 121 123 124 125 126 129 131 133 137 141 151 159
1 2 17 18 19 20 21 22 23 24 25 26 27 28 29 30 31 32 34 35 36 60 71 81 82 83 84 85 87 88 89 90 91 92 93 94 95 96 97 98 99 109 110 113 114 115 116 118 120 121 123 124 125 126 129 131 133 137 141 151 159
1 2 17 18 19 20 21 22 23 24 25 26 27 28 29 30 31 32 60 71 81 82 83 85 86 88 89 90 91 92
1 2 17 18 19 20 21 22 23 24 25 26 27 28 29 30 31 32 60 71 82 83 85 86 87 89 90 91 92 93 94 95
1 2 17 18 19 20 21 22 23 24 25 26 27 28 29 30 31 32 34 35 36 60 71 82 83 85 86 87 88 90 91 92 93 94 95 96 97 98 99 109 110 113 114 115 116 118 120 121 123 124 125 126 129 131 133 137 141 151 159
1 2 17 18 19 20 21 22 23 24 25 26 27 28 29 30 31 32 34 35 36 60 71 83 85 86 87 88 89 91 92 93 94 95 96 97 98 99 109 110 113 114 115 116 118 120 121 123 124 125 126 129 131 133 137 141 151 159
1 2 17 18 19 20 21 22 23 24 25 26 27 28 29 30 31 32 60 71 83 85 86 87 88 89 90
1 2 17 18 19 20 21 22 23 24 25 26 27 28 29 30 31 32 34 35 36 60 71 83 85 86 87 88 89 90 93 94 95 96 97 98 99 109 110 113 114 115 116 118 120 121 123 124 125 126 129 131 133 137 141 151 159
1 2 17 18 19 20 21 22 23 24 25 26 27 28 29 30 31 32 34 35 36 60 71 83 85 86 88 89 90 92 94 95 96 97 98 99 109 110 113 114 115 116 118 120 121 123 124 125 126 129 131 133 137 141 151 159
1 2 17 18 19 20 21 22 23 24 25 26 27 28 29 30 31 32 60 71 83 85 86 88 89 90 92 93
1 2 17 18 19 20 21 22 23 24 25 26 27 28 29 30 31 32 34 35 36 60 71 83 85 86 88 89 90 92 93 96 97 98 99 109 110 113 114 115 116 118 120 121 123 124 125 126 129 131 133 137 141 151 159
1 2 17 18 19 20 21 22 23 24 25 26 27 28 29 30 31 32 34 35 36 60 71 83 85 86 89 90 92 93 95 97 98 99 109 110 113 114 115 116 118 120 121 123 124 125 126 129 131 133 137 141 151 159
1 2 17 18 19 20 21 22 23 24 25 26 27 28 29 30 31 32 60 71 83 85 86 89 90 92 93 95 96
1 2 17 18 19 20 21 22 23 24 25 26 27 28 29 30 31 32 60 71 83 85 86 89 90 92 93 95 96 99
1 2 17 18 19 20 21 22 23 24 25 26 27 28 29 30 31 32 60 71 83 85 86 89 90 92 93 95 96 98
1 2 3 4 5 6 7 8 9 10 11 12 13 14 15 16 17 49 50 51 52 53 54 61 63 65 66 67 70
1 2 3 4 5 6 7 8 9 10 11 12 13 14 15 16 17 49 50 51 52 53 54 61 63 65 66 67 70
1 2 3 4 5 6 7 8 9 10 11 12 13 14 15 16 17 49 50 51 52 53 54 61 63 65 66 67 70
1 2 3 4 5 6 7 8 9 10 11 12 13 14 15 16 17 49 50 51 52 53 54 61 63 65 66 67 70
1 2 3 4 5 6 7 8 9 10 11 12 13 14 15 16 17 49 50 51 52 53 54 61 63 65 66 67 70
1 2 3 4 5 6 7 8 9 10 11 12 13 14 15 16 17 49 50 51 52 53 54 61 63 65 66 67 70
1 2 3 4 5 6 7 8 9 10 11 12 13 14 15 16 17 49 50 51 52 53 54 61 63 65 66 67 70
1 2 3 4 5 6 7 8 9 10 11 12 13 14 15 16 17 33 49 50 51 52 53 54 61 63 65 66 67 70 153 154 155 156 157

1 2 17 18 19 20 21 22 23 24 25 26 27 28 29 30 31 32 60 71 83 85 86 89 90 92 93 95 96 110
1 2 17 18 19 20 21 22 23 24 25 26 27 28 29 30 31 32 60 71 83 85 86 89 90 92 93 95 96 109
1 2 3 4 5 6 7 8 9 10 11 12 13 14 15 16 17 33 49 50 51 52 53 54 61 63 65 66 67 70
1 2 3 4 5 6 7 8 9 10 11 12 13 14 15 16 17 49 50 51 52 53 54 61 63 65 66 67 70
1 2 17 18 19 20 21 22 23 24 25 26 27 28 29 30 31 32 60 71 83 85 86 89 90 92 93 95 96
1 2 17 18 19 20 21 22 23 24 25 26 27 28 29 30 31 32 60 71 83 85 86 89 90 92 93 95 96 115 116
1 2 17 18 19 20 21 22 23 24 25 26 27 28 29 30 31 32 60 71 83 85 86 89 90 92 93 95 96 114 116
1 2 17 18 19 20 21 22 23 24 25 26 27 28 29 30 31 32 60 71 83 85 86 89 90 92 93 95 96 114 115 118 120 121
1 2 3 4 5 6 7 8 9 10 11 12 13 14 15 16 17 49 50 51 52 53 54 61 63 65 66 67 70 119
1 2 17 18 19 20 21 22 23 24 25 26 27 28 29 30 31 32 60 71 83 85 86 89 90 92 93 95 96 116
1 2 3 4 5 6 7 8 9 10 11 12 13 14 15 16 17 49 50 51 52 53 54 61 63 65 66 67 70 117
1 2 17 18 19 20 21 22 23 24 25 26 27 28 29 30 31 32 60 71 83 85 86 89 90 92 93 95 96 116 121
1 2 17 18 19 20 21 22 23 24 25 26 27 28 29 30 31 32 60 71 83 85 86 89 90 92 93 95 96 116 120
1 2 3 4 5 6 7 8 9 10 11 12 13 14 15 16 17 49 50 51 52 53 54 61 63 65 66 67 70
1 2 17 18 19 20 21 22 23 24 25 26 27 28 29 30 31 32 60 71 83 85 86 89 90 92 93 95 96
1 2 17 18 19 20 21 22 23 24 25 26 27 28 29 30 31 32 60 71 83 85 86 89 90 92 93 95 96 125
1 2 17 18 19 20 21 22 23 24 25 26 27 28 29 30 31 32 60 71 83 85 86 89 90 92 93 95 96 124
1 2 17 18 19 20 21 22 23 24 25 26 27 28 29 30 31 32 60 71 83 85 86 89 90 92 93 95 96
1 2 17 18 19 20 21 22 23 24 25 26 27 28 29 30 31 32

1 2 17 18 19 20 21 22 23 24 25 26 27 28 29 30 31 32 34 60 71 83 85 86 89 90 92 93 95 96 131 133 137
1 2 3 4 5 6 7 8 9 10 11 12 13 14 15 16 17 49 50 51 52 53 54 61 63 65 66 67 70 132 134 135
1 2 17 18 19 20 21 22 23 24 25 26 27 28 29 30 31 32 34 60 71 83 85 86 89 90 92 93 95 96 129
1 2 3 4 5 6 7 8 9 10 11 12 13 14 15 16 17 49 50 51 52 53 54 61 63 65 66 67 70 130 134
1 2 17 18 19 20 21 22 23 24 25 26 27 28 29 30 31 32 34 60 71 83 85 86 89 90 92 93 95 96 129
1 2 3 4 5 6 7 8 9 10 11 12 13 14 15 16 17 49 50 51 52 53 54 61 63 65 66 67 70 130 132
1 2 3 4 5 6 7 8 9 10 11 12 13 14 15 16 17 49 50 51 52 53 54 61 63 65 66 67 70 130
1 2 3 4 5 6 7 8 9 10 11 12 13 14 15 16 17 49 50 51 52 53 54 61 63 65 66 67 70 138
1 2 17 18 19 20 21 22 23 24 25 26 27 28 29 30 31 32 34 60 71 83 85 86 89 90 92 93 95 96 129
1 2 3 4 5 6 7 8 9 10 11 12 13 14 15 16 17 49 50 51 52 53 54 61 63 65 66 67 70 136
1 2 3 4 5 6 7 8 9 10 11 12 13 14 15 16 17 49 50 51 52 53 54 61 63 65 66 67 70

1 2 17 18 19 20 21 22 23 24 25 26 27 28 29 30 31 32 34 60 71 83 85 86 89 90 92 93 95 96

1 2 3 4 5 6 7 8 9 10 11 12 13 14 15 16 17 49 50 51 52 53 54 61 63 65 66 67 70 144 145 146
1 2 3 4 5 6 7 8 9 10 11 12 13 14 15 16 17 49 50 51 52 53 54 61 63 65 66 67 70 143 145
1 2 3 4 5 6 7 8 9 10 11 12 13 14 15 16 17 49 50 51 52 53 54 61 63 65 66 67 70 143 144
1 2 3 4 5 6 7 8 9 10 11 12 13 14 15 16 17 49 50 51 52 53 54 61 63 65 66 67 70 143
1 2 3 4 5 6 7 8 9 10 11 12 13 14 15 16 17 49 50 51 52 53 54 61 63 65 66 67 70 148
1 2 3 4 5 6 7 8 9 10 11 12 13 14 15 16 17 49 50 51 52 53 54 61 63 65 66 67 70 147
1 2 3 4 5 6 7 8 9 10 11 12 13 14 15 16 17 49 50 51 52 53 54 61 63 65 66 67 70

1 2 17 18 19 20 21 22 23 24 25 26 27 28 29 30 31 32 36 60 71 83 85 86 89 90 92 93 95 96

1 2 3 4 5 6 7 8 9 10 11 12 13 14 15 16 17 49 50 51 52 53 54 61 63 65 66 67 70 107
1 2 3 4 5 6 7 8 9 10 11 12 13 14 15 16 17 49 50 51 52 53 54 61 63 65 66 67 70 107
1 2 3 4 5 6 7 8 9 10 11 12 13 14 15 16 17 49 50 51 52 53 54 61 63 65 66 67 70 107
1 2 3 4 5 6 7 8 9 10 11 12 13 14 15 16 17 49 50 51 52 53 54 61 63 65 66 67 70 107
1 2 3 4 5 6 7 8 9 10 11 12 13 14 15 16 17 49 50 51 52 53 54 61 63 65 66 67 70 107

1 2 17 18 19 20 21 22 23 24 25 26 27 28 29 30 31 32 35 60 71 83 85 86 89 90 92 93 95 96

1 2 17 18 19 20 21 22 23 24 25 26 27 28 29 30 31 32 162
1 2 17 18 19 20 21 22 23 24 25 26 27 28 29 30 31 32 161
1 2 3 4 5 6 7 8 9 10 11 12 13 14 15 16 17 19 20 21 22 23 24 25 26 49 50 51 52 53 54 164 165
1 2 3 4 5 6 7 8 9 10 11 12 13 14 15 16 17 20 21 22 23 24 25 26 49 50 51 52 53 54 163 165
1 2 3 4 5 6 7 8 9 10 11 12 13 14 15 16 17 21 22 23 24 25 26 49 50 51 52 53 54 163 164
1 2 17 18 19 20 21 22 23 24 25 26 27 28 29 30 31 32 167
1 2 17 18 19 20 21 22 23 24 25 26 27 28 29 30 31 32 166
1 2 17 18 19 20 21 22 23 24 25 26 27 28 29 30 31 32 169 170 171 172 173 174 175
1 2 16 17 18 19 20 21 22 23 24 25 26 27 28 29 30 31 32 168 170 171 172 173 174 175
1 2 10 16 17 18 19 20 21 22 23 24 25 26 27 28 29 30 31 32 168 169 171 172 173 174 175
1 2 9 10 16 17 18 19 20 21 22 23 24 25 26 27 28 29 30 31 32 168 169 170 172 173 174 175
1 2 8 9 10 16 17 18 19 20 21 22 23 24 25 26 27 28 29 30 31 32 168 169 170 171 173 174 175
1 2 7 8 9 10 16 17 18 19 20 21 22 23 24 25 26 27 28 29 30 31 32 168 169 170 171 172 174 175
1 2 6 7 8 9 10 16 17 18 19 20 21 22 23 24 25 26 27 28 29 30 31 32 168 169 170 171 172 173 175
1 2 5 6 7 8 9 10 16 17 18 19 20 21 22 23 24 25 26 27 28 29 30 31 32 168 169 170 171 172 173 174
1 2 17 18 19 20 21 22 23 24 25 26 27 28 29 30 31 32 177
1 2 17 18 19 20 21 22 23 24 25 26 27 28 29 30 31 32 176 178
1 2 17 18 19 20 21 22 23 24 25 26 27 28 29 30 31 32 37 177 179 184
1 2 17 18 19 20 21 22 23 24 25 26 27 28 29 30 31 32 37 178 184

1 2 3 4 5 6 7 8 9 10 11 12 13 14 15 16 17 49 50 51 52 53 54
1 2 3 4 5 6 7 8 9 10 11 12 13 14 15 16 17 49 50 51 52 53 54

1 2 17 18 19 20 21 22 23 24 25 26 27 28 29 30 31 32 37 178 179
1 2 17 18 19 20 21 22 23 24 25 26 27 28 29 30 31 32
1 2 17 18 19 20 21 22 23 24 25 26 27 28 29 30 31 32
